1592.37 0
0 167 159 10 189 108 90 181 20 9 102 50 0
0 6 118 5 84 173 61 16 119 91 59 94 156 0
0 184 196 66 33 68 150 80 177 12 154 0
0 2 178 115 72 197 186 23 67 39 179 0
0 26 149 195 54 130 165 55 25 24 121 163 134 109 138 28 0
0 76 116 77 169 29 170 187 139 56 155 4 110 198 21 0
0 112 87 144 57 145 41 22 133 75 74 171 73 0
0 30 188 103 161 71 65 136 35 135 164 78 0
0 96 104 99 93 85 100 193 191 192 43 15 172 95 0
0 18 17 113 86 141 44 38 140 14 142 183 0
0 153 182 123 19 107 175 64 63 126 32 131 160 122 0
0 70 128 51 120 34 81 185 79 129 3 158 157 111 0
0 194 48 168 47 143 49 11 62 148 127 0
0 132 69 176 1 101 162 31 190 88 7 124 36 46 82 106 52 0
0 13 117 97 151 92 98 37 42 137 58 152 40 180 105 53 0
0 27 146 89 166 114 8 174 45 125 199 83 60 147 0